1 51 2
-581 -762 -751 -482 -724 -758 -514 -707 -850 -661 -131 -71 -36 -274 -65 -551 -192 -586 -778 -361 -800 -949 -188 -234 -843 -188 -908 -689 -796 -513 -281 -897 -829 -89 -13 -438 -372 -351 -146 -922 -100 -822 -512 -435 -654 -225 -409 -342 -771 -712 0 
-435 -180 -233 -545 -262 -243 -427 -276 -188 -436 -844 -852 -894 -678 -937 -350 -798 -314 -125 -548 -113 -22 -769 -670 -177 -818 -87 -358 -241 -479 -633 -181 -95 -929 -894 -554 -651 -737 -858 -13 -921 -258 -426 -537 -315 -875 -583 -692 -135 -310 0 
894 266 210 737 938 977 235 76 831 430 821 295 742 50 270 918 884 297 520 38 230 531 49 954 610 424 772 625 872 589 846 605 719 918 80 666 919 866 904 779 430 826 286 279 996 423 758 284 196 814 1 
14339 
